
  22    4
  10   10   10   10

   0   0   0   0   0   4 2 3 4 8 
   2  10  10  10  10   3 11 6 5 
  10  10  10  10  10   2 11 7 
  10  10  10  10  10   3 12 11 10 
   1  10  10  10  10   2 10 9 
   7  10  10  10  10   1 7 
   3  10  10  10  10   3 13 12 10 
   7  10  10  10  10   2 12 10 
   1  10  10  10  10   3 18 13 12 
   4  10  10  10  10   3 21 18 14 
   8  10  10  10  10   2 15 13 
   1  10  10  10  10   3 21 17 15 
  10  10  10  10  10   3 21 17 16 
   2  10  10  10  10   2 17 15 
   3  10  10  10  10   1 16 
   7  10  10  10  10   2 20 19 
  10  10  10  10  10   1 19 
   2  10  10  10  10   1 19 
   2  10  10  10  10   1 22
   8  10  10  10  10   1 22
   5  10  10  10  10   1 22
   0   0   0   0   0   0 
